(set-info :smt-lib-version 2.6)
(set-logic QF_NIA)
(set-info :source |
Generated by: Cristina Borralleras, Daniel Larraz, Albert Oliveras, Enric Rodriguez-Carbonell, Albert Rubio
Generated on: 2017-04-27
Generator: VeryMax
Application: Termination proving
Target solver: barcelogic
|)
(set-info :license "https://creativecommons.org/licenses/by/4.0/")
(set-info :category "industrial")
(set-info :status unsat)
(declare-fun Nl2main_n1 () Int)
(declare-fun Nl2main_i1 () Int)
(declare-fun Nl2main_j1 () Int)
(declare-fun lam0n0 () Int)
(declare-fun lam0n1 () Int)
(declare-fun lam0n2 () Int)
(declare-fun lam0n3 () Int)
(declare-fun lam0n4 () Int)
(declare-fun lam0n5 () Int)
(declare-fun lam0n6 () Int)
(declare-fun Nl2CT1 () Int)
(declare-fun lam1n0 () Int)
(declare-fun lam1n1 () Int)
(declare-fun lam1n2 () Int)
(declare-fun lam1n3 () Int)
(declare-fun lam1n4 () Int)
(declare-fun lam1n5 () Int)
(declare-fun lam1n6 () Int)
(declare-fun lam2n0 () Int)
(declare-fun lam2n1 () Int)
(declare-fun lam2n4 () Int)
(declare-fun lam2n2 () Int)
(declare-fun lam2n3 () Int)
(declare-fun lam3n0 () Int)
(declare-fun lam3n3 () Int)
(declare-fun lam3n1 () Int)
(declare-fun lam3n2 () Int)
(declare-fun main_n () Int)
(declare-fun main_i () Int)
(declare-fun main_j () Int)
(declare-fun undef2 () Int)
(declare-fun lam7n0 () Int)
(declare-fun lam7n1 () Int)
(declare-fun lam7n2 () Int)
(declare-fun lam7n3 () Int)
(declare-fun lam7n4 () Int)
(declare-fun lam7n5 () Int)
(declare-fun lam7n6 () Int)
(declare-fun RFN1_CT () Int)
(declare-fun RFN1_main_i () Int)
(declare-fun RFN1_main_j () Int)
(declare-fun RFN1_main_n () Int)
(declare-fun lam5n0 () Int)
(declare-fun lam5n1 () Int)
(declare-fun lam5n2 () Int)
(declare-fun lam5n3 () Int)
(declare-fun lam5n4 () Int)
(declare-fun lam5n5 () Int)
(declare-fun lam5n6 () Int)
(declare-fun lam6n0 () Int)
(declare-fun lam6n1 () Int)
(declare-fun lam6n2 () Int)
(declare-fun lam6n3 () Int)
(declare-fun lam6n4 () Int)
(declare-fun lam6n5 () Int)
(declare-fun lam6n6 () Int)
(declare-fun lam4n0 () Int)
(declare-fun lam4n1 () Int)
(declare-fun lam4n2 () Int)
(declare-fun lam4n3 () Int)
(declare-fun lam4n4 () Int)
(declare-fun lam4n5 () Int)
(declare-fun lam4n6 () Int)
(assert ( and ( <= ( - 1 ) Nl2main_n1 ) ( <= Nl2main_n1 1 ) ( <= ( - 1 ) Nl2main_i1 ) ( <= Nl2main_i1 1 ) ( <= ( - 1 ) Nl2main_j1 ) ( <= Nl2main_j1 1 ) ))
(assert ( or ( and ( >= lam0n0 0 ) ( >= lam0n1 0 ) ( >= lam0n2 0 ) ( >= lam0n3 0 ) ( >= lam0n4 0 ) ( >= lam0n5 0 ) ( >= lam0n6 0 ) ( > ( + ( * 1 lam0n2 ) ( * 1 lam0n3 ) ( * 1 lam0n4 ) ( * 1 lam0n5 ) ( * Nl2CT1 lam0n6 ) ( - 1 ) ) 0 ) ( = ( + ( * 1 lam0n2 ) ( * 1 lam0n3 ) ( * 1 lam0n4 ) ( * Nl2main_n1 lam0n6 ) ) 0 ) ( = ( + ( * 1 lam0n0 ) ( * ( - 1 ) lam0n1 ) ( * 1 lam0n3 ) ( * ( - 1 ) lam0n5 ) ( * Nl2main_i1 lam0n6 ) ) 0 ) ( = ( + ( * ( - 1 ) lam0n0 ) ( * ( - 1 ) lam0n3 ) ( * ( - 1 ) lam0n4 ) ( * ( - 1 ) lam0n5 ) ( * Nl2main_j1 lam0n6 ) ) 0 ) ) ( and ( >= lam1n0 0 ) ( >= lam1n1 0 ) ( >= lam1n2 0 ) ( >= lam1n3 0 ) ( >= lam1n4 0 ) ( >= lam1n5 0 ) ( >= lam1n6 0 ) ( > ( + ( * 1 lam1n2 ) ( * 1 lam1n3 ) ( * 1 lam1n4 ) ( * 1 lam1n5 ) ( * Nl2CT1 lam1n6 ) ( - 1 ( + ( + Nl2CT1 ( * Nl2main_i1 0 ) ) ( * Nl2main_j1 0 ) ) ) ) 0 ) ( = ( + ( * 1 lam1n2 ) ( * 1 lam1n3 ) ( * 1 lam1n4 ) ( * Nl2main_n1 lam1n6 ) ( - ( + 0 Nl2main_n1 ) ) ) 0 ) ( = ( + ( * 1 lam1n0 ) ( * ( - 1 ) lam1n1 ) ( * 1 lam1n3 ) ( * ( - 1 ) lam1n5 ) ( * Nl2main_i1 lam1n6 ) ( - ( + 0 ( * Nl2main_j1 1 ) ) ) ) 0 ) ( = ( + ( * ( - 1 ) lam1n0 ) ( * ( - 1 ) lam1n3 ) ( * ( - 1 ) lam1n4 ) ( * ( - 1 ) lam1n5 ) ( * Nl2main_j1 lam1n6 ) ( - ( + ( + 0 ( * Nl2main_i1 1 ) ) ( * Nl2main_j1 1 ) ) ) ) 0 ) ) ))
(assert ( or ( and ( <= ( + ( * ( - 1 ) main_n ) ( * ( - 1 ) main_i ) main_j ) 0 ) ( not ( <= ( + ( - 1 ) main_n ( * ( - 1 ) main_i ) ) 0 ) ) ( = ( + main_n ( * ( - 1 ) undef2 ) ) 0 ) ( = main_i 0 ) ( = ( + ( - 1 ) main_j ) 0 ) ( <= ( + Nl2CT1 ( * ( + 0 Nl2main_n1 ) main_n ) ( * ( + 0 Nl2main_i1 ) main_i ) ( * ( + 0 Nl2main_j1 ) main_j ) ) 0 ) ( <= ( + 1 main_n ) 0 ) ( <= ( * ( - 1 ) main_i ) 0 ) ) ( and ( not ( <= ( + ( * ( - 1 ) main_n ) ( * ( - 1 ) main_i ) main_j ) 0 ) ) ( = ( + main_n ( * ( - 1 ) undef2 ) ) 0 ) ( = main_i 0 ) ( = ( + ( - 1 ) main_j ) 0 ) ( <= ( + Nl2CT1 ( * ( + 0 Nl2main_n1 ) main_n ) ( * ( + 0 Nl2main_i1 ) main_i ) ( * ( + 0 Nl2main_j1 ) main_j ) ) 0 ) ( <= ( + 1 main_n ) 0 ) ( <= ( * ( - 1 ) main_i ) 0 ) ) ))
(assert ( or ( and ( and ( >= lam7n0 0 ) ( >= lam7n1 0 ) ( >= lam7n2 0 ) ( >= lam7n3 0 ) ( >= lam7n4 0 ) ( >= lam7n5 0 ) ( >= lam7n6 0 ) ( > ( + ( * 1 lam7n2 ) ( * 1 lam7n3 ) ( * 1 lam7n4 ) ( * 50001 lam7n5 ) ( * Nl2CT1 lam7n6 ) ( - 1 ( - ( + ( + RFN1_CT ( * RFN1_main_i 0 ) ) ( * RFN1_main_j 0 ) ) RFN1_CT ) ) ) 0 ) ( = ( + ( * 1 lam7n2 ) ( * 1 lam7n3 ) ( * 1 lam7n4 ) ( * Nl2main_n1 lam7n6 ) ( - ( - ( + 0 RFN1_main_n ) RFN1_main_n ) ) ) 0 ) ( = ( + ( * 1 lam7n0 ) ( * ( - 1 ) lam7n1 ) ( * 1 lam7n3 ) ( * ( - 1 ) lam7n5 ) ( * Nl2main_i1 lam7n6 ) ( - ( - ( + 0 ( * RFN1_main_j 1 ) ) RFN1_main_i ) ) ) 0 ) ( = ( + ( * ( - 1 ) lam7n0 ) ( * ( - 1 ) lam7n3 ) ( * ( - 1 ) lam7n4 ) ( * ( - 1 ) lam7n5 ) ( * Nl2main_j1 lam7n6 ) ( - ( - ( + ( + 0 ( * RFN1_main_i 1 ) ) ( * RFN1_main_j 1 ) ) RFN1_main_j ) ) ) 0 ) ) ( and ( and ( >= lam5n0 0 ) ( >= lam5n1 0 ) ( >= lam5n2 0 ) ( >= lam5n3 0 ) ( >= lam5n4 0 ) ( >= lam5n5 0 ) ( >= lam5n6 0 ) ( > ( + ( * 1 lam5n2 ) ( * 1 lam5n3 ) ( * 1 lam5n4 ) ( * 50001 lam5n5 ) ( * Nl2CT1 lam5n6 ) ( - 1 ( - RFN1_CT ) ) ) 0 ) ( = ( + ( * 1 lam5n2 ) ( * 1 lam5n3 ) ( * 1 lam5n4 ) ( * Nl2main_n1 lam5n6 ) ( - ( - RFN1_main_n ) ) ) 0 ) ( = ( + ( * 1 lam5n0 ) ( * ( - 1 ) lam5n1 ) ( * 1 lam5n3 ) ( * ( - 1 ) lam5n5 ) ( * Nl2main_i1 lam5n6 ) ( - ( - RFN1_main_i ) ) ) 0 ) ( = ( + ( * ( - 1 ) lam5n0 ) ( * ( - 1 ) lam5n3 ) ( * ( - 1 ) lam5n4 ) ( * ( - 1 ) lam5n5 ) ( * Nl2main_j1 lam5n6 ) ( - ( - RFN1_main_j ) ) ) 0 ) ) ( and ( >= lam6n0 0 ) ( >= lam6n1 0 ) ( >= lam6n2 0 ) ( >= lam6n3 0 ) ( >= lam6n4 0 ) ( >= lam6n5 0 ) ( >= lam6n6 0 ) ( > ( + ( * 1 lam6n2 ) ( * 1 lam6n3 ) ( * 1 lam6n4 ) ( * 50001 lam6n5 ) ( * Nl2CT1 lam6n6 ) ( - 1 ( + ( - ( + ( + RFN1_CT ( * RFN1_main_i 0 ) ) ( * RFN1_main_j 0 ) ) RFN1_CT ) 1 ) ) ) 0 ) ( = ( + ( * 1 lam6n2 ) ( * 1 lam6n3 ) ( * 1 lam6n4 ) ( * Nl2main_n1 lam6n6 ) ( - ( - ( + 0 RFN1_main_n ) RFN1_main_n ) ) ) 0 ) ( = ( + ( * 1 lam6n0 ) ( * ( - 1 ) lam6n1 ) ( * 1 lam6n3 ) ( * ( - 1 ) lam6n5 ) ( * Nl2main_i1 lam6n6 ) ( - ( - ( + 0 ( * RFN1_main_j 1 ) ) RFN1_main_i ) ) ) 0 ) ( = ( + ( * ( - 1 ) lam6n0 ) ( * ( - 1 ) lam6n3 ) ( * ( - 1 ) lam6n4 ) ( * ( - 1 ) lam6n5 ) ( * Nl2main_j1 lam6n6 ) ( - ( - ( + ( + 0 ( * RFN1_main_i 1 ) ) ( * RFN1_main_j 1 ) ) RFN1_main_j ) ) ) 0 ) ) ) ) ( and ( >= lam4n0 0 ) ( >= lam4n1 0 ) ( >= lam4n2 0 ) ( >= lam4n3 0 ) ( >= lam4n4 0 ) ( >= lam4n5 0 ) ( >= lam4n6 0 ) ( > ( + ( * 1 lam4n2 ) ( * 1 lam4n3 ) ( * 1 lam4n4 ) ( * 50001 lam4n5 ) ( * Nl2CT1 lam4n6 ) ( - 1 ) ) 0 ) ( = ( + ( * 1 lam4n2 ) ( * 1 lam4n3 ) ( * 1 lam4n4 ) ( * Nl2main_n1 lam4n6 ) ) 0 ) ( = ( + ( * 1 lam4n0 ) ( * ( - 1 ) lam4n1 ) ( * 1 lam4n3 ) ( * ( - 1 ) lam4n5 ) ( * Nl2main_i1 lam4n6 ) ) 0 ) ( = ( + ( * ( - 1 ) lam4n0 ) ( * ( - 1 ) lam4n3 ) ( * ( - 1 ) lam4n4 ) ( * ( - 1 ) lam4n5 ) ( * Nl2main_j1 lam4n6 ) ) 0 ) ) ))
(check-sat)
(exit)
